
Gurobi 11.0.1 (mac64[x86], gurobi_cl) logging started Wed May 22 15:31:12 2024

Set parameter Username
Set parameter TimeLimit to value 120
Set parameter LogFile to value "./lp_solutions/grafo11384.30.log"
Using license file /Users/sara/gurobi.lic
Academic license - for non-commercial use only - expires 2025-05-12

Gurobi Optimizer version 11.0.1 build v11.0.1rc0 (mac64[x86] - Darwin 21.6.0 21G651)
Copyright (c) 2024, Gurobi Optimization, LLC

Read LP format model from file ./lp_problems/grafo11384.30.lp
Reading time = 0.03 seconds
: 20419 rows, 1138 columns, 62041 nonzeros

CPU model: Intel(R) Core(TM) i5-1038NG7 CPU @ 2.00GHz
Thread count: 4 physical cores, 8 logical processors, using up to 8 threads

Optimize a model with 20419 rows, 1138 columns and 62041 nonzeros
Model fingerprint: 0xf96507a1
Variable types: 34 continuous, 1104 integer (1104 binary)
Coefficient statistics:
  Matrix range     [1e+00, 5e+01]
  Objective range  [1e+00, 1e+00]
  Bounds range     [1e+00, 1e+00]
  RHS range        [1e+00, 5e+01]
Found heuristic solution: objective 27.0000000
Presolve removed 228 rows and 93 columns
Presolve time: 0.13s
Presolved: 20191 rows, 1045 columns, 61228 nonzeros
Variable types: 0 continuous, 1045 integer (1023 binary)
Found heuristic solution: objective 28.0000000

Root relaxation: objective 5.373529e+01, 612 iterations, 0.16 seconds (0.08 work units)

    Nodes    |    Current Node    |     Objective Bounds      |     Work
 Expl Unexpl |  Obj  Depth IntInf | Incumbent    BestBd   Gap | It/Node Time

     0     0   53.73529    0   77   28.00000   53.73529  91.9%     -    0s
H    0     0                      37.0000000   53.73529  45.2%     -    0s
H    0     0                      38.0000000   53.73529  41.4%     -    0s
     0     0   53.73529    0   77   38.00000   53.73529  41.4%     -    0s
     0     0   53.73529    0   68   38.00000   53.73529  41.4%     -    0s
H    0     0                      39.0000000   53.73529  37.8%     -    0s
H    0     0                      40.0000000   53.73529  34.3%     -    1s
     0     0   47.42558    0   90   40.00000   47.42558  18.6%     -    1s
H    0     0                      41.0000000   46.94029  14.5%     -    1s
     0     0   46.94029    0   90   41.00000   46.94029  14.5%     -    1s
     0     0   45.00000    0  108   41.00000   45.00000  9.76%     -    1s
     0     0   45.00000    0   78   41.00000   45.00000  9.76%     -    1s
     0     0   45.00000    0   54   41.00000   45.00000  9.76%     -    2s
     0     0   45.00000    0   60   41.00000   45.00000  9.76%     -    2s
     0     0   45.00000    0   17   41.00000   45.00000  9.76%     -    3s
     0     0   45.00000    0   17   41.00000   45.00000  9.76%     -    3s
     0     0   45.00000    0   90   41.00000   45.00000  9.76%     -    4s
     0     0   45.00000    0   90   41.00000   45.00000  9.76%     -    4s
     0     0   45.00000    0   37   41.00000   45.00000  9.76%     -    4s
     0     0   45.00000    0   35   41.00000   45.00000  9.76%     -    4s
     0     0   45.00000    0   69   41.00000   45.00000  9.76%     -    4s
     0     0   45.00000    0   73   41.00000   45.00000  9.76%     -    5s
     0     0   45.00000    0   30   41.00000   45.00000  9.76%     -    5s
     0     0   45.00000    0   45   41.00000   45.00000  9.76%     -    5s
     0     0   45.00000    0   30   41.00000   45.00000  9.76%     -    5s
     0     0   45.00000    0   19   41.00000   45.00000  9.76%     -    5s
     0     2   45.00000    0   13   41.00000   45.00000  9.76%     -    6s
   240   143   43.96970    7  140   41.00000   45.00000  9.76%   218   10s
   447   206   42.96273   10  160   41.00000   45.00000  9.76%   210   15s
   705   259   42.95404   11   86   41.00000   44.94742  9.63%   218   20s
  1217   243     cutoff   13        41.00000   44.00000  7.32%   224   25s

Cutting planes:
  Gomory: 1
  Cover: 6
  Implied bound: 1
  MIR: 15
  Inf proof: 55
  Zero half: 5
  RLT: 7

Explored 1779 nodes (380451 simplex iterations) in 28.93 seconds (32.62 work units)
Thread count was 8 (of 8 available processors)

Solution count 8: 41 40 39 ... 27

Optimal solution found (tolerance 1.00e-04)
Best objective 4.100000000000e+01, best bound 4.100000000000e+01, gap 0.0000%

Wrote result file './lp_solutions/grafo11384.30.sol'

